p edge 302 1094
e 1 4
e 1 5
e 1 14
e 1 25
e 1 42
e 1 52
e 1 59
e 1 61
e 1 123
e 1 130
e 1 142
e 1 170
e 1 182
e 1 243
e 1 278
e 2 7
e 2 8
e 2 13
e 2 14
e 2 20
e 2 21
e 2 23
e 2 27
e 2 30
e 2 32
e 2 54
e 2 66
e 2 72
e 2 100
e 2 122
e 2 127
e 2 204
e 2 240
e 3 17
e 3 18
e 3 29
e 3 36
e 3 39
e 3 56
e 3 58
e 3 62
e 3 68
e 3 73
e 3 82
e 3 91
e 3 136
e 3 146
e 3 195
e 3 235
e 3 289
e 4 11
e 4 31
e 4 36
e 4 56
e 4 61
e 4 62
e 4 63
e 4 65
e 4 79
e 4 80
e 4 84
e 4 109
e 4 113
e 4 114
e 4 138
e 4 142
e 4 170
e 4 217
e 4 229
e 4 237
e 4 278
e 5 6
e 5 11
e 5 31
e 5 36
e 5 45
e 5 46
e 5 109
e 5 110
e 5 129
e 5 144
e 5 180
e 5 223
e 5 284
e 6 51
e 6 62
e 6 67
e 6 73
e 6 92
e 6 99
e 6 100
e 6 102
e 6 139
e 6 150
e 6 190
e 6 191
e 6 208
e 6 220
e 6 222
e 6 223
e 6 234
e 6 268
e 6 284
e 7 9
e 7 11
e 7 21
e 7 23
e 7 33
e 7 41
e 7 53
e 7 60
e 7 63
e 7 76
e 7 83
e 7 89
e 7 99
e 8 9
e 8 29
e 8 32
e 8 33
e 8 38
e 8 55
e 8 78
e 8 96
e 8 115
e 8 128
e 8 152
e 8 189
e 8 207
e 8 211
e 8 250
e 9 14
e 9 16
e 9 40
e 9 55
e 9 70
e 9 76
e 9 78
e 9 87
e 9 88
e 9 96
e 9 108
e 9 125
e 9 171
e 9 207
e 10 12
e 10 15
e 10 17
e 10 19
e 10 31
e 10 32
e 10 50
e 10 58
e 10 71
e 10 77
e 10 81
e 10 100
e 10 103
e 10 117
e 10 132
e 10 157
e 10 176
e 10 215
e 10 218
e 10 230
e 10 253
e 11 24
e 11 31
e 11 33
e 11 41
e 11 47
e 11 63
e 11 84
e 11 85
e 11 109
e 11 115
e 11 147
e 11 162
e 11 169
e 12 15
e 12 17
e 12 28
e 12 42
e 12 71
e 12 75
e 12 81
e 12 100
e 12 103
e 12 131
e 12 157
e 12 216
e 12 230
e 12 269
e 13 14
e 13 20
e 13 30
e 13 34
e 13 40
e 13 72
e 13 73
e 13 92
e 13 98
e 13 106
e 13 124
e 13 160
e 13 197
e 13 218
e 13 256
e 14 19
e 14 73
e 14 93
e 14 116
e 14 160
e 14 174
e 14 262
e 15 28
e 15 31
e 15 32
e 15 35
e 15 66
e 15 71
e 15 77
e 15 81
e 15 88
e 15 95
e 15 135
e 15 176
e 15 190
e 15 191
e 15 215
e 15 218
e 15 225
e 15 280
e 16 30
e 16 57
e 16 64
e 16 68
e 16 87
e 16 90
e 16 94
e 16 104
e 16 117
e 16 126
e 16 132
e 17 22
e 17 36
e 17 37
e 17 48
e 17 51
e 17 68
e 17 71
e 17 81
e 17 103
e 17 157
e 17 216
e 17 289
e 18 43
e 18 57
e 18 76
e 18 82
e 18 94
e 18 197
e 18 296
e 19 28
e 19 41
e 19 44
e 19 55
e 19 58
e 19 60
e 19 174
e 19 257
e 20 30
e 20 34
e 20 40
e 20 72
e 20 92
e 20 98
e 20 127
e 20 218
e 20 225
e 21 23
e 21 46
e 21 49
e 21 100
e 21 107
e 21 111
e 21 118
e 21 119
e 21 201
e 21 210
e 21 232
e 22 37
e 22 48
e 22 69
e 22 81
e 22 108
e 22 112
e 22 125
e 22 130
e 22 166
e 22 171
e 22 221
e 23 24
e 23 27
e 23 53
e 23 60
e 23 84
e 23 96
e 23 143
e 23 169
e 23 192
e 23 194
e 23 292
e 24 33
e 24 65
e 24 80
e 24 85
e 24 109
e 24 115
e 24 146
e 24 169
e 24 292
e 25 26
e 25 27
e 25 47
e 25 49
e 25 52
e 25 79
e 25 85
e 25 110
e 25 120
e 25 129
e 25 130
e 25 155
e 25 177
e 25 245
e 26 79
e 26 114
e 26 139
e 26 179
e 26 183
e 26 195
e 26 275
e 27 45
e 27 48
e 27 54
e 27 65
e 27 66
e 27 74
e 27 84
e 27 85
e 27 114
e 27 129
e 27 204
e 28 41
e 28 44
e 28 54
e 28 60
e 28 120
e 28 122
e 28 139
e 28 231
e 28 257
e 29 33
e 29 38
e 29 43
e 29 91
e 29 110
e 29 145
e 29 175
e 29 209
e 29 265
e 29 287
e 30 57
e 30 69
e 30 72
e 30 103
e 30 127
e 30 150
e 30 166
e 31 35
e 31 63
e 31 64
e 31 68
e 31 71
e 31 81
e 31 84
e 31 98
e 31 109
e 31 128
e 31 141
e 31 214
e 31 215
e 31 218
e 32 35
e 32 64
e 32 71
e 32 77
e 32 135
e 32 176
e 32 193
e 32 225
e 32 253
e 32 263
e 33 63
e 33 65
e 33 80
e 33 83
e 33 89
e 33 109
e 33 115
e 34 41
e 34 72
e 34 92
e 34 98
e 34 112
e 34 116
e 34 119
e 34 225
e 34 248
e 34 255
e 35 64
e 35 77
e 35 83
e 35 135
e 35 176
e 35 214
e 35 215
e 35 225
e 35 263
e 36 56
e 36 68
e 36 79
e 36 138
e 36 162
e 36 170
e 36 289
e 36 290
e 37 48
e 37 51
e 37 52
e 37 120
e 37 127
e 37 130
e 37 134
e 37 164
e 37 171
e 37 184
e 37 247
e 37 291
e 38 39
e 38 41
e 38 43
e 38 61
e 38 63
e 38 74
e 38 84
e 38 121
e 38 145
e 38 163
e 38 181
e 38 189
e 38 209
e 39 63
e 39 74
e 39 84
e 39 115
e 39 119
e 39 121
e 39 127
e 39 146
e 39 151
e 39 159
e 39 163
e 39 207
e 39 219
e 39 235
e 40 55
e 40 75
e 40 78
e 40 82
e 40 88
e 40 98
e 40 105
e 40 108
e 40 125
e 40 171
e 41 43
e 41 72
e 41 74
e 41 209
e 41 257
e 42 49
e 42 58
e 42 59
e 42 77
e 42 86
e 42 118
e 42 123
e 42 182
e 42 216
e 42 243
e 42 269
e 43 55
e 43 76
e 43 78
e 43 145
e 43 168
e 43 183
e 43 196
e 43 264
e 44 55
e 44 60
e 44 93
e 44 112
e 44 116
e 44 125
e 44 137
e 44 229
e 45 66
e 45 129
e 45 143
e 45 154
e 46 50
e 46 109
e 46 110
e 46 144
e 46 181
e 47 57
e 47 104
e 47 109
e 47 129
e 47 147
e 47 149
e 48 51
e 48 53
e 48 54
e 48 66
e 48 81
e 48 118
e 49 97
e 49 100
e 49 102
e 49 107
e 49 110
e 49 111
e 49 118
e 49 155
e 49 261
e 50 83
e 50 86
e 50 94
e 50 117
e 50 132
e 50 181
e 50 198
e 50 205
e 50 271
e 50 272
e 51 73
e 51 75
e 51 92
e 51 99
e 51 139
e 51 153
e 51 160
e 52 120
e 52 130
e 52 164
e 52 184
e 52 247
e 52 291
e 53 60
e 53 95
e 53 118
e 53 270
e 54 66
e 54 69
e 54 88
e 54 122
e 54 204
e 54 294
e 55 58
e 55 75
e 55 78
e 55 108
e 55 207
e 56 62
e 56 79
e 56 80
e 56 91
e 56 113
e 56 138
e 56 149
e 57 74
e 57 104
e 57 147
e 57 237
e 57 296
e 58 73
e 58 77
e 58 127
e 58 195
e 58 295
e 59 61
e 59 86
e 59 101
e 59 133
e 59 140
e 59 172
e 59 182
e 59 190
e 59 191
e 59 220
e 59 233
e 59 243
e 60 95
e 60 139
e 60 224
e 61 121
e 61 133
e 61 142
e 61 170
e 61 172
e 61 181
e 61 206
e 61 233
e 61 278
e 62 80
e 62 91
e 62 106
e 62 251
e 63 83
e 63 84
e 63 89
e 63 109
e 63 115
e 63 121
e 63 156
e 63 181
e 63 189
e 64 68
e 64 77
e 64 87
e 64 94
e 64 117
e 64 126
e 64 132
e 64 214
e 64 215
e 64 263
e 65 74
e 65 80
e 65 84
e 65 90
e 65 114
e 65 180
e 65 201
e 65 237
e 66 69
e 66 118
e 66 129
e 66 204
e 67 102
e 67 190
e 67 191
e 67 208
e 67 220
e 67 223
e 67 226
e 67 227
e 67 228
e 67 234
e 67 239
e 67 301
e 68 81
e 68 87
e 68 94
e 68 98
e 68 117
e 68 126
e 68 132
e 68 289
e 69 103
e 69 108
e 69 118
e 69 166
e 69 221
e 69 242
e 70 82
e 70 87
e 70 89
e 70 91
e 70 96
e 70 136
e 70 168
e 71 77
e 71 81
e 71 103
e 71 135
e 71 157
e 71 215
e 71 218
e 72 92
e 72 98
e 72 127
e 73 99
e 73 112
e 73 139
e 73 160
e 73 195
e 73 295
e 74 84
e 74 163
e 74 209
e 74 235
e 75 92
e 75 97
e 75 131
e 75 158
e 75 160
e 75 222
e 75 230
e 76 104
e 77 135
e 77 263
e 77 266
e 77 267
e 78 88
e 78 108
e 78 125
e 78 171
e 78 183
e 78 207
e 78 264
e 79 114
e 79 138
e 79 151
e 79 217
e 80 162
e 80 217
e 81 98
e 81 103
e 81 157
e 81 215
e 81 218
e 82 96
e 82 98
e 82 136
e 82 140
e 82 202
e 82 279
e 83 89
e 83 128
e 83 202
e 83 205
e 83 271
e 83 272
e 84 109
e 84 163
e 84 235
e 85 146
e 85 169
e 86 101
e 86 123
e 86 182
e 86 198
e 86 220
e 86 243
e 87 117
e 87 126
e 87 132
e 88 95
e 88 108
e 88 125
e 88 171
e 88 294
e 89 91
e 89 152
e 89 238
e 90 180
e 90 201
e 91 140
e 91 173
e 91 209
e 92 97
e 92 98
e 92 100
e 92 158
e 92 160
e 92 222
e 93 116
e 93 137
e 93 229
e 93 262
e 94 197
e 95 99
e 95 150
e 96 136
e 96 140
e 96 202
e 96 260
e 97 102
e 97 158
e 97 222
e 97 226
e 97 227
e 97 252
e 97 281
e 99 112
e 99 139
e 99 150
e 100 107
e 100 111
e 100 118
e 100 122
e 100 222
e 100 230
e 101 103
e 101 106
e 101 156
e 101 200
e 101 220
e 102 148
e 102 192
e 102 208
e 102 220
e 102 223
e 102 228
e 102 234
e 102 239
e 102 301
e 103 157
e 103 166
e 103 228
e 103 288
e 105 126
e 105 154
e 105 167
e 105 180
e 105 186
e 105 187
e 106 124
e 106 152
e 106 197
e 106 200
e 106 251
e 106 256
e 106 297
e 107 111
e 107 118
e 107 123
e 107 158
e 108 125
e 108 166
e 108 171
e 108 221
e 108 242
e 109 110
e 109 115
e 109 144
e 109 147
e 110 144
e 110 155
e 110 175
e 110 265
e 111 118
e 111 122
e 111 123
e 111 212
e 112 116
e 112 125
e 112 137
e 112 248
e 113 114
e 113 147
e 113 149
e 113 210
e 113 229
e 113 258
e 113 259
e 114 210
e 114 217
e 115 121
e 115 163
e 115 189
e 116 229
e 116 248
e 116 262
e 117 126
e 117 132
e 117 167
e 117 178
e 119 127
e 119 151
e 119 159
e 119 207
e 119 219
e 119 255
e 120 134
e 120 164
e 120 177
e 120 184
e 120 231
e 120 245
e 120 247
e 120 291
e 121 168
e 121 181
e 121 206
e 122 178
e 122 212
e 123 276
e 124 141
e 124 197
e 124 200
e 124 233
e 124 256
e 125 137
e 125 171
e 126 132
e 126 167
e 126 176
e 128 141
e 128 152
e 128 202
e 128 211
e 129 180
e 130 165
e 130 171
e 130 293
e 131 164
e 131 230
e 131 249
e 131 254
e 132 135
e 132 142
e 133 172
e 133 173
e 133 233
e 133 238
e 134 148
e 134 155
e 134 161
e 135 142
e 135 176
e 135 225
e 136 140
e 136 202
e 138 155
e 138 232
e 139 195
e 140 173
e 140 202
e 141 233
e 141 282
e 141 283
e 142 170
e 142 278
e 143 192
e 143 194
e 144 148
e 144 177
e 146 235
e 147 237
e 147 258
e 147 259
e 148 155
e 148 161
e 148 177
e 148 192
e 148 239
e 148 246
e 150 268
e 151 159
e 151 207
e 151 219
e 152 211
e 152 238
e 152 297
e 153 161
e 154 186
e 154 187
e 155 161
e 156 189
e 158 222
e 159 199
e 159 207
e 159 213
e 159 219
e 159 231
e 162 217
e 164 184
e 164 247
e 164 249
e 164 291
e 164 302
e 165 184
e 165 244
e 165 277
e 165 293
e 165 298
e 165 299
e 166 221
e 166 242
e 168 196
e 169 292
e 170 278
e 170 290
e 171 245
e 172 173
e 172 233
e 173 238
e 175 265
e 176 225
e 176 253
e 177 245
e 179 188
e 179 275
e 180 186
e 180 187
e 180 201
e 181 189
e 182 186
e 182 187
e 182 243
e 183 264
e 184 241
e 184 247
e 184 277
e 184 291
e 185 193
e 185 199
e 185 213
e 185 224
e 186 187
e 190 191
e 190 280
e 191 280
e 192 194
e 192 239
e 193 199
e 193 213
e 196 198
e 196 206
e 197 256
e 198 206
e 199 213
e 201 232
e 203 236
e 204 214
e 205 211
e 205 271
e 205 272
e 207 219
e 208 220
e 208 223
e 208 228
e 208 234
e 208 239
e 208 301
e 212 234
e 213 231
e 214 215
e 215 218
e 216 269
e 220 223
e 220 234
e 221 242
e 221 300
e 223 234
e 223 284
e 226 227
e 226 252
e 227 252
e 228 288
e 228 301
e 241 244
e 241 273
e 241 274
e 242 300
e 244 273
e 244 274
e 244 298
e 244 299
e 247 291
e 247 302
e 258 259
e 266 267
e 271 272
e 273 274
e 282 283
e 285 286
e 298 299
